% 
% Converted by convert_jobshop2.pl
% 
% original file (abz5) from Google or-tools SVN repository
%   or-tools-read-only/data/jobshop/abz5
%
%
% This data file is to be used with either of these two MiniZinc models:
%    http://www.hakank.org/minizinc/jobshop.mzn
%    http://www.hakank.org/minizinc/jobshop2.mzn
%


 
% +++++++++++++++++++++++++++++
% instance abz5
% +++++++++++++++++++++++++++++
% Adams, Balas, and Zawack 10x10 instance (Table 1, instance 5)

num_machines = 10;
num_jobs = 10;
max_time = 99999; 

%
% The times for each job.
%
job_times = array2d(1..num_machines, 1..num_jobs,
[
88,68,94,99,67,89,77,99,86,92,
72,50,69,75,94,66,92,82,94,63,
83,61,83,65,64,85,78,85,55,77,
94,68,61,99,54,75,66,76,63,67,
69,88,82,95,99,67,95,68,67,86,
99,81,64,66,80,80,69,62,79,88,
50,86,97,96,95,97,66,99,52,71,
98,73,82,51,71,94,85,62,95,79,
94,71,81,85,66,90,76,58,93,97,
50,59,82,67,56,96,58,81,59,96,
]);


%
% The order each job must be done.
%
job_order = array2d(1..num_machines, 1..num_jobs,
[
4,8,6,5,1,2,9,7,0,3,
5,3,6,4,2,8,0,1,7,9,
9,8,0,1,6,5,7,4,2,3,
7,2,1,4,3,6,5,0,9,8,
3,4,9,8,0,2,6,5,7,1,
1,4,5,6,8,2,7,9,3,0,
7,1,4,3,0,8,2,5,6,9,
4,6,3,2,1,5,7,0,8,9,
0,6,3,7,1,2,4,5,8,9,
3,0,1,8,7,9,6,4,5,2,
]);
